p edge 878
e 0 3
e 0 46
e 0 48
e 0 838
e 1 2
e 1 47
e 1 48
e 1 837
e 1 839
e 1 841
e 2 47
e 2 413
e 2 839
e 2 846
e 3 48
e 3 837
e 3 838
e 4 5
e 4 176
e 4 367
e 4 675
e 4 779
e 4 790
e 4 791
e 5 6
e 5 165
e 5 166
e 5 176
e 5 177
e 5 776
e 5 779
e 6 176
e 6 177
e 7 403
e 7 404
e 7 405
e 7 407
e 7 408
e 8 9
e 8 188
e 8 238
e 8 240
e 8 606
e 8 617
e 9 188
e 9 606
e 9 871
e 10 11
e 10 13
e 10 14
e 10 15
e 11 12
e 11 13
e 11 14
e 11 197
e 11 474
e 11 780
e 12 14
e 12 15
e 12 107
e 12 216
e 12 780
e 13 15
e 13 424
e 13 474
e 13 497
e 13 734
e 14 15
e 15 107
e 15 424
e 15 758
e 16 27
e 16 615
e 16 616
e 16 620
e 16 870
e 17 18
e 17 19
e 17 237
e 17 620
e 17 856
e 17 870
e 18 19
e 18 604
e 18 856
e 18 863
e 18 876
e 18 877
e 19 237
e 19 864
e 19 877
e 20 21
e 20 35
e 20 212
e 20 834
e 21 35
e 21 80
e 21 186
e 21 245
e 21 331
e 21 573
e 21 629
e 21 834
e 22 69
e 22 219
e 22 281
e 22 282
e 22 426
e 22 427
e 22 444
e 22 446
e 22 447
e 23 49
e 23 235
e 23 377
e 23 378
e 23 692
e 23 737
e 24 25
e 24 100
e 24 802
e 25 802
e 26 27
e 26 105
e 26 187
e 26 613
e 26 615
e 26 867
e 26 875
e 27 105
e 27 187
e 27 615
e 27 856
e 27 863
e 27 865
e 27 866
e 27 870
e 28 30
e 28 135
e 28 136
e 28 142
e 28 787
e 29 33
e 29 134
e 29 135
e 29 280
e 29 624
e 29 695
e 30 32
e 30 136
e 30 278
e 30 279
e 30 683
e 31 140
e 31 239
e 31 412
e 31 683
e 31 693
e 32 33
e 32 135
e 32 412
e 32 683
e 33 134
e 33 280
e 33 412
e 33 693
e 34 62
e 34 63
e 34 238
e 34 619
e 35 186
e 36 44
e 36 558
e 36 592
e 36 625
e 37 38
e 37 39
e 37 41
e 37 201
e 38 39
e 38 40
e 38 41
e 39 40
e 39 201
e 39 346
e 39 347
e 39 587
e 39 590
e 39 775
e 40 274
e 40 556
e 40 557
e 40 775
e 41 75
e 41 79
e 41 201
e 42 298
e 42 299
e 42 304
e 42 306
e 42 555
e 42 626
e 43 162
e 43 241
e 43 300
e 43 303
e 43 304
e 43 321
e 43 322
e 43 542
e 44 558
e 44 562
e 44 591
e 44 592
e 45 357
e 45 493
e 45 495
e 45 582
e 45 601
e 45 602
e 46 48
e 46 838
e 46 841
e 46 842
e 46 843
e 46 844
e 46 845
e 47 842
e 47 843
e 47 846
e 47 848
e 48 837
e 48 841
e 49 52
e 49 311
e 49 376
e 49 377
e 49 532
e 49 552
e 49 692
e 50 196
e 50 528
e 50 531
e 50 535
e 50 536
e 51 52
e 51 531
e 51 534
e 51 552
e 51 553
e 51 554
e 52 532
e 52 552
e 52 554
e 53 525
e 53 528
e 53 536
e 54 59
e 54 60
e 54 352
e 54 857
e 54 858
e 54 859
e 55 57
e 55 58
e 55 105
e 55 872
e 55 873
e 56 351
e 56 435
e 56 654
e 56 862
e 56 874
e 57 65
e 57 67
e 57 105
e 57 435
e 57 611
e 57 855
e 58 61
e 58 611
e 58 865
e 58 872
e 59 224
e 59 229
e 59 857
e 59 858
e 59 861
e 60 352
e 60 388
e 60 863
e 60 866
e 61 388
e 61 611
e 61 855
e 61 865
e 61 866
e 62 63
e 62 857
e 62 859
e 62 869
e 63 238
e 63 644
e 63 649
e 63 857
e 64 411
e 64 618
e 64 860
e 64 871
e 64 874
e 65 66
e 65 288
e 65 289
e 65 435
e 65 861
e 66 289
e 66 435
e 66 814
e 66 862
e 67 388
e 67 855
e 67 858
e 67 861
e 68 69
e 68 386
e 68 387
e 68 490
e 68 757
e 68 802
e 69 386
e 69 427
e 69 444
e 69 490
e 70 71
e 70 72
e 70 156
e 70 428
e 70 490
e 70 506
e 70 757
e 71 72
e 71 506
e 71 794
e 72 92
e 72 101
e 72 757
e 72 794
e 73 390
e 73 391
e 73 393
e 73 394
e 73 395
e 74 75
e 74 76
e 74 77
e 74 79
e 75 76
e 75 77
e 75 78
e 75 79
e 75 80
e 75 201
e 75 245
e 75 246
e 75 483
e 76 77
e 76 78
e 76 79
e 77 78
e 79 80
e 80 245
e 81 82
e 81 694
e 81 695
e 81 696
e 81 697
e 82 323
e 82 325
e 82 695
e 82 696
e 82 828
e 83 84
e 83 85
e 83 519
e 83 522
e 83 698
e 84 85
e 84 86
e 84 698
e 84 772
e 84 853
e 85 86
e 85 258
e 85 413
e 85 519
e 85 523
e 86 413
e 86 839
e 86 853
e 87 88
e 87 92
e 87 101
e 88 89
e 88 90
e 88 91
e 88 92
e 89 90
e 89 91
e 89 92
e 89 93
e 89 100
e 90 92
e 91 93
e 91 101
e 92 101
e 93 100
e 93 102
e 94 95
e 94 127
e 94 673
e 94 678
e 95 126
e 95 128
e 95 367
e 95 369
e 95 673
e 95 678
e 96 97
e 96 98
e 96 99
e 96 194
e 96 447
e 96 448
e 96 785
e 97 98
e 97 191
e 97 194
e 98 104
e 98 448
e 98 785
e 99 155
e 99 194
e 99 426
e 99 447
e 100 102
e 100 802
e 101 102
e 101 757
e 102 757
e 102 802
e 103 281
e 103 282
e 103 444
e 103 446
e 103 449
e 104 386
e 104 444
e 104 445
e 104 448
e 105 351
e 105 409
e 105 435
e 105 607
e 105 865
e 105 873
e 105 875
e 106 107
e 106 123
e 106 132
e 106 263
e 106 574
e 106 575
e 107 132
e 107 216
e 107 218
e 107 574
e 107 575
e 107 758
e 108 109
e 108 125
e 108 203
e 109 125
e 109 149
e 109 164
e 109 202
e 109 203
e 109 541
e 110 111
e 110 112
e 110 404
e 110 623
e 110 849
e 110 850
e 110 852
e 111 112
e 111 623
e 112 133
e 112 137
e 112 405
e 112 623
e 112 624
e 113 116
e 113 146
e 113 173
e 113 174
e 113 175
e 114 170
e 114 171
e 114 172
e 114 173
e 114 174
e 114 175
e 115 116
e 115 171
e 115 173
e 115 202
e 115 205
e 115 207
e 115 492
e 116 146
e 116 147
e 116 173
e 116 207
e 117 118
e 117 122
e 117 635
e 117 638
e 117 641
e 118 120
e 118 635
e 119 121
e 119 122
e 119 251
e 119 252
e 119 294
e 119 489
e 119 633
e 120 122
e 120 489
e 120 634
e 121 252
e 121 436
e 121 438
e 121 489
e 122 489
e 122 633
e 122 641
e 123 262
e 123 263
e 123 316
e 123 319
e 123 575
e 123 758
e 123 759
e 124 681
e 124 682
e 125 129
e 125 164
e 125 203
e 125 672
e 126 366
e 126 367
e 126 539
e 126 676
e 127 363
e 127 673
e 127 677
e 127 678
e 127 679
e 128 367
e 128 675
e 128 678
e 128 679
e 129 203
e 129 364
e 129 368
e 129 577
e 129 578
e 129 672
e 130 132
e 130 165
e 130 177
e 130 218
e 130 256
e 130 296
e 131 132
e 131 218
e 132 169
e 132 218
e 132 263
e 133 134
e 133 137
e 133 139
e 133 151
e 133 239
e 134 137
e 134 239
e 134 624
e 134 693
e 135 142
e 135 697
e 136 139
e 136 152
e 136 279
e 136 786
e 136 787
e 138 139
e 138 140
e 138 239
e 138 278
e 138 279
e 139 141
e 139 151
e 139 152
e 139 239
e 140 239
e 140 278
e 140 683
e 141 152
e 141 786
e 142 697
e 142 787
e 143 144
e 143 258
e 143 521
e 143 523
e 143 571
e 143 572
e 144 154
e 144 520
e 144 571
e 145 146
e 145 147
e 145 150
e 145 277
e 146 147
e 147 150
e 147 207
e 147 277
e 148 149
e 148 541
e 149 150
e 149 202
e 149 207
e 149 541
e 150 207
e 150 277
e 152 786
e 153 154
e 153 155
e 153 222
e 153 547
e 153 643
e 154 155
e 154 189
e 154 194
e 154 520
e 154 547
e 154 571
e 155 194
e 155 222
e 155 426
e 156 158
e 156 159
e 156 428
e 156 506
e 156 546
e 156 547
e 156 643
e 157 158
e 157 159
e 157 517
e 157 518
e 157 520
e 157 544
e 157 545
e 157 547
e 157 686
e 158 159
e 158 547
e 159 505
e 159 506
e 159 544
e 159 686
e 159 773
e 159 774
e 160 161
e 161 260
e 161 556
e 161 562
e 161 682
e 161 711
e 162 327
e 162 328
e 162 330
e 162 334
e 162 542
e 163 164
e 163 538
e 163 539
e 163 541
e 163 672
e 163 676
e 164 541
e 164 672
e 165 166
e 165 167
e 165 169
e 165 177
e 166 168
e 166 169
e 166 304
e 166 322
e 166 776
e 167 169
e 168 169
e 169 263
e 169 322
e 170 173
e 170 175
e 171 172
e 171 173
e 171 492
e 171 513
e 172 513
e 173 175
e 174 175
e 176 177
e 176 232
e 176 295
e 176 296
e 176 790
e 177 296
e 178 179
e 178 710
e 178 711
e 178 733
e 179 370
e 179 709
e 179 710
e 179 712
e 179 733
e 180 181
e 180 753
e 180 754
e 180 784
e 180 787
e 181 750
e 181 752
e 181 753
e 181 787
e 182 183
e 182 197
e 182 198
e 182 325
e 182 477
e 182 696
e 182 755
e 183 198
e 183 325
e 183 829
e 184 416
e 184 419
e 184 422
e 184 501
e 184 503
e 184 504
e 184 627
e 185 417
e 185 498
e 185 499
e 185 503
e 185 504
e 185 507
e 185 511
e 188 605
e 188 610
e 188 617
e 188 871
e 189 190
e 189 192
e 189 193
e 189 194
e 189 571
e 189 572
e 189 658
e 189 659
e 189 665
e 190 191
e 190 192
e 190 193
e 190 194
e 191 192
e 191 194
e 192 402
e 192 658
e 193 194
e 195 528
e 195 529
e 195 530
e 195 533
e 195 535
e 196 531
e 196 535
e 196 550
e 196 568
e 197 474
e 197 477
e 197 751
e 197 754
e 198 474
e 198 477
e 198 485
e 198 829
e 199 200
e 199 691
e 199 707
e 199 714
e 199 723
e 200 701
e 200 703
e 200 714
e 200 723
e 200 763
e 201 320
e 201 481
e 201 483
e 201 775
e 202 203
e 202 204
e 202 205
e 202 206
e 202 207
e 203 205
e 203 206
e 203 494
e 203 578
e 204 205
e 204 206
e 205 206
e 205 492
e 205 494
e 208 212
e 208 261
e 208 276
e 209 210
e 209 213
e 209 214
e 209 261
e 209 267
e 209 430
e 209 433
e 210 261
e 210 267
e 210 433
e 211 432
e 211 452
e 211 454
e 211 464
e 211 798
e 212 276
e 212 834
e 213 214
e 213 261
e 213 430
e 213 431
e 214 266
e 214 385
e 214 430
e 214 431
e 214 680
e 215 439
e 215 440
e 215 586
e 215 719
e 215 731
e 216 217
e 216 218
e 216 254
e 216 780
e 216 783
e 218 254
e 218 256
e 219 426
e 219 427
e 220 221
e 220 222
e 220 427
e 220 429
e 220 642
e 221 222
e 221 642
e 222 426
e 222 427
e 222 642
e 222 643
e 223 268
e 223 645
e 223 646
e 223 648
e 223 651
e 224 225
e 224 228
e 224 229
e 224 652
e 224 857
e 225 226
e 225 227
e 225 652
e 225 857
e 226 227
e 227 268
e 227 649
e 227 652
e 227 857
e 228 229
e 228 396
e 228 399
e 228 400
e 228 652
e 229 400
e 229 861
e 230 233
e 230 791
e 230 792
e 230 793
e 231 232
e 231 234
e 231 767
e 232 234
e 232 294
e 232 295
e 232 487
e 232 767
e 232 768
e 232 790
e 233 767
e 233 790
e 233 791
e 233 793
e 234 767
e 235 373
e 235 692
e 236 238
e 236 268
e 236 646
e 236 647
e 236 650
e 237 238
e 237 616
e 237 619
e 237 620
e 237 864
e 238 240
e 238 472
e 238 616
e 238 617
e 238 619
e 239 693
e 240 479
e 240 603
e 240 618
e 240 805
e 240 820
e 241 243
e 241 300
e 241 302
e 241 306
e 241 334
e 241 357
e 241 358
e 241 555
e 242 383
e 242 573
e 242 629
e 243 334
e 243 354
e 243 358
e 243 383
e 243 384
e 243 833
e 244 245
e 244 246
e 245 246
e 245 331
e 245 333
e 246 333
e 246 482
e 246 483
e 247 248
e 247 249
e 247 251
e 247 764
e 247 789
e 248 251
e 249 251
e 249 256
e 249 788
e 249 789
e 250 254
e 250 255
e 250 256
e 250 789
e 251 252
e 251 256
e 251 294
e 251 295
e 251 764
e 252 254
e 252 255
e 252 436
e 252 764
e 252 783
e 253 255
e 253 764
e 253 789
e 254 255
e 254 256
e 254 783
e 255 764
e 255 789
e 256 296
e 256 788
e 256 789
e 257 286
e 257 290
e 257 292
e 257 416
e 257 598
e 257 627
e 258 337
e 258 413
e 258 414
e 258 523
e 258 572
e 259 389
e 259 416
e 259 658
e 259 660
e 260 348
e 260 349
e 260 562
e 260 711
e 261 276
e 262 263
e 262 264
e 262 319
e 262 481
e 262 769
e 262 770
e 263 265
e 263 322
e 263 769
e 264 265
e 264 322
e 264 481
e 264 482
e 264 543
e 264 770
e 264 771
e 265 322
e 265 769
e 265 771
e 266 267
e 266 799
e 266 835
e 267 276
e 267 433
e 267 799
e 268 645
e 268 646
e 268 649
e 268 651
e 268 652
e 269 270
e 269 284
e 269 564
e 269 797
e 269 806
e 270 271
e 270 283
e 270 806
e 271 283
e 271 563
e 271 564
e 272 371
e 272 372
e 272 382
e 272 715
e 272 722
e 272 728
e 272 737
e 273 274
e 273 275
e 273 466
e 273 469
e 273 556
e 273 681
e 273 682
e 274 275
e 274 318
e 274 320
e 274 466
e 274 556
e 274 775
e 275 318
e 275 681
e 276 461
e 276 799
e 276 834
e 278 279
e 278 683
e 281 282
e 281 446
e 282 447
e 282 449
e 283 470
e 283 472
e 283 480
e 283 565
e 283 585
e 283 795
e 283 806
e 284 470
e 284 563
e 284 564
e 284 797
e 285 470
e 285 480
e 285 821
e 286 287
e 286 289
e 286 416
e 286 598
e 286 740
e 286 831
e 286 832
e 287 288
e 287 289
e 287 389
e 287 400
e 287 416
e 287 740
e 288 289
e 288 400
e 288 861
e 289 814
e 289 831
e 290 291
e 290 292
e 290 598
e 290 599
e 291 292
e 291 293
e 291 406
e 291 407
e 292 293
e 292 627
e 293 407
e 293 627
e 293 628
e 294 295
e 294 467
e 294 468
e 294 487
e 294 633
e 294 640
e 295 296
e 295 468
e 297 298
e 297 303
e 297 305
e 298 303
e 298 304
e 298 305
e 298 626
e 299 301
e 299 302
e 299 306
e 299 626
e 300 302
e 300 303
e 300 626
e 301 302
e 301 626
e 302 306
e 303 304
e 303 305
e 303 626
e 304 305
e 304 322
e 304 555
e 304 776
e 304 777
e 306 555
e 307 314
e 307 315
e 307 316
e 307 317
e 307 319
e 308 524
e 308 526
e 308 527
e 308 537
e 308 551
e 309 312
e 309 524
e 309 529
e 309 530
e 310 525
e 310 528
e 310 533
e 311 326
e 311 485
e 311 548
e 311 552
e 311 829
e 312 313
e 312 524
e 312 525
e 312 527
e 312 529
e 312 567
e 313 527
e 313 566
e 313 567
e 314 315
e 314 316
e 315 316
e 315 319
e 316 317
e 316 318
e 316 319
e 316 512
e 316 759
e 317 318
e 317 319
e 318 319
e 318 320
e 318 512
e 318 681
e 319 320
e 319 481
e 320 481
e 320 775
e 321 322
e 321 542
e 322 542
e 322 543
e 323 325
e 323 828
e 323 830
e 324 326
e 324 537
e 324 548
e 324 698
e 324 827
e 324 828
e 325 696
e 325 829
e 326 548
e 326 827
e 326 828
e 326 829
e 327 328
e 327 329
e 327 330
e 327 331
e 328 334
e 329 330
e 329 333
e 330 333
e 330 482
e 330 542
e 331 332
e 331 333
e 331 334
e 331 335
e 331 629
e 332 334
e 332 335
e 332 336
e 332 629
e 333 482
e 334 335
e 334 336
e 334 383
e 334 629
e 335 336
e 337 338
e 337 413
e 337 414
e 337 572
e 337 846
e 337 847
e 338 417
e 338 418
e 338 572
e 338 659
e 338 665
e 338 847
e 339 684
e 339 705
e 339 717
e 339 721
e 339 724
e 340 597
e 340 688
e 340 717
e 340 729
e 341 586
e 341 589
e 341 719
e 341 729
e 342 442
e 342 583
e 342 724
e 342 725
e 342 726
e 343 442
e 343 443
e 343 569
e 343 688
e 343 718
e 343 726
e 344 345
e 344 718
e 344 719
e 344 731
e 345 441
e 345 718
e 345 719
e 345 729
e 346 347
e 346 587
e 346 590
e 347 590
e 348 349
e 348 476
e 348 704
e 348 711
e 349 476
e 349 742
e 350 389
e 350 398
e 350 400
e 351 409
e 351 435
e 351 654
e 351 655
e 352 388
e 352 858
e 353 354
e 353 355
e 353 356
e 353 357
e 353 360
e 353 765
e 353 766
e 354 355
e 354 358
e 354 765
e 354 833
e 355 359
e 355 360
e 355 833
e 356 357
e 356 360
e 356 602
e 357 358
e 357 555
e 357 582
e 357 602
e 357 766
e 358 765
e 358 766
e 359 360
e 359 833
e 359 836
e 361 701
e 361 702
e 361 705
e 361 725
e 361 760
e 362 363
e 362 364
e 362 365
e 362 516
e 362 674
e 363 516
e 363 674
e 363 677
e 363 679
e 364 368
e 364 516
e 364 577
e 365 368
e 365 369
e 365 674
e 366 367
e 366 539
e 366 791
e 367 675
e 367 791
e 368 369
e 368 672
e 369 672
e 369 673
e 369 674
e 369 676
e 370 374
e 370 375
e 370 380
e 370 485
e 370 709
e 370 733
e 370 734
e 371 378
e 371 382
e 371 450
e 371 478
e 371 735
e 371 737
e 372 373
e 372 689
e 372 728
e 373 689
e 373 737
e 374 375
e 374 733
e 374 736
e 375 376
e 375 379
e 375 380
e 375 381
e 375 485
e 375 739
e 376 377
e 376 450
e 376 485
e 376 735
e 376 739
e 377 378
e 377 450
e 378 450
e 379 381
e 379 485
e 379 738
e 380 381
e 380 738
e 381 738
e 382 478
e 382 684
e 382 721
e 382 733
e 383 384
e 383 573
e 383 629
e 384 456
e 384 573
e 384 833
e 385 451
e 385 680
e 386 387
e 386 444
e 387 802
e 388 855
e 388 866
e 389 398
e 389 400
e 389 402
e 389 416
e 389 658
e 390 391
e 390 392
e 391 392
e 391 395
e 391 399
e 391 652
e 392 393
e 392 652
e 393 394
e 393 401
e 394 395
e 394 397
e 394 401
e 395 396
e 396 397
e 396 399
e 396 400
e 396 402
e 397 401
e 397 402
e 398 400
e 398 402
e 399 652
e 400 402
e 401 402
e 402 658
e 403 404
e 403 407
e 403 843
e 403 844
e 403 845
e 404 405
e 404 840
e 404 844
e 404 849
e 405 408
e 406 407
e 406 408
e 407 408
e 407 628
e 407 843
e 407 848
e 409 410
e 409 605
e 409 607
e 409 655
e 409 871
e 410 654
e 410 655
e 410 871
e 411 871
e 411 874
e 413 414
e 413 839
e 413 846
e 415 416
e 415 501
e 415 657
e 415 660
e 415 664
e 416 501
e 417 418
e 417 419
e 417 499
e 417 504
e 417 847
e 418 508
e 418 659
e 418 661
e 418 662
e 418 667
e 419 422
e 419 504
e 419 847
e 419 848
e 420 421
e 420 498
e 420 509
e 420 511
e 421 498
e 421 501
e 421 509
e 422 627
e 422 628
e 422 848
e 423 424
e 423 425
e 423 502
e 423 512
e 423 758
e 423 759
e 424 497
e 424 502
e 424 758
e 425 502
e 425 512
e 425 681
e 425 682
e 425 709
e 426 427
e 426 447
e 427 429
e 427 490
e 428 429
e 428 490
e 428 643
e 429 490
e 429 642
e 429 643
e 432 434
e 432 454
e 432 800
e 432 801
e 432 836
e 434 801
e 434 836
e 436 437
e 436 438
e 436 783
e 436 784
e 436 787
e 437 438
e 438 786
e 439 440
e 439 715
e 439 730
e 439 732
e 440 586
e 440 715
e 441 688
e 441 718
e 441 729
e 442 583
e 442 688
e 442 717
e 442 726
e 443 569
e 443 570
e 443 718
e 443 727
e 444 445
e 444 446
e 444 448
e 444 449
e 445 448
e 447 448
e 447 449
e 448 449
e 450 735
e 451 453
e 451 460
e 451 680
e 452 453
e 452 454
e 452 460
e 452 464
e 453 458
e 454 458
e 455 460
e 455 463
e 455 464
e 455 799
e 455 835
e 456 457
e 456 459
e 456 462
e 456 464
e 456 573
e 456 798
e 456 833
e 457 463
e 457 465
e 458 800
e 459 461
e 459 462
e 459 573
e 459 834
e 460 680
e 460 835
e 461 462
e 461 465
e 461 799
e 461 834
e 462 465
e 463 464
e 463 799
e 464 798
e 465 799
e 466 469
e 467 468
e 470 472
e 470 480
e 470 563
e 470 796
e 470 797
e 470 803
e 470 804
e 470 809
e 470 811
e 470 813
e 470 817
e 470 821
e 471 807
e 471 810
e 471 814
e 471 818
e 471 822
e 471 825
e 472 805
e 473 598
e 473 599
e 473 600
e 473 832
e 474 477
e 474 485
e 474 734
e 475 476
e 475 704
e 475 743
e 475 747
e 475 748
e 476 704
e 476 742
e 476 743
e 478 733
e 478 739
e 479 486
e 479 603
e 479 810
e 479 815
e 479 820
e 479 824
e 479 825
e 480 585
e 480 821
e 480 826
e 481 482
e 481 483
e 482 483
e 482 484
e 482 542
e 482 543
e 485 734
e 485 738
e 485 829
e 486 810
e 486 816
e 486 819
e 486 820
e 487 636
e 487 637
e 487 638
e 487 639
e 487 640
e 487 768
e 488 489
e 488 634
e 489 634
e 490 491
e 490 757
e 491 757
e 492 493
e 492 494
e 492 513
e 492 514
e 493 494
e 493 495
e 493 513
e 493 514
e 493 601
e 494 495
e 494 514
e 494 578
e 495 578
e 495 582
e 496 505
e 496 506
e 497 502
e 497 709
e 498 501
e 498 503
e 498 511
e 499 507
e 499 508
e 499 510
e 500 501
e 500 508
e 500 509
e 500 510
e 500 663
e 500 664
e 501 503
e 501 664
e 502 709
e 503 504
e 505 506
e 505 744
e 505 747
e 505 773
e 507 509
e 507 510
e 507 511
e 508 510
e 508 666
e 509 510
e 509 511
e 512 681
e 512 759
e 513 601
e 515 516
e 515 577
e 515 579
e 515 777
e 515 778
e 516 577
e 516 679
e 516 778
e 516 779
e 517 518
e 517 520
e 517 521
e 517 700
e 518 522
e 518 526
e 518 549
e 518 566
e 518 700
e 519 521
e 519 522
e 519 523
e 519 699
e 519 700
e 520 521
e 520 547
e 521 523
e 521 699
e 521 700
e 522 549
e 522 698
e 522 700
e 523 699
e 524 527
e 524 530
e 524 535
e 524 551
e 525 528
e 525 529
e 525 532
e 525 533
e 525 536
e 525 553
e 525 567
e 525 692
e 525 718
e 525 731
e 525 732
e 526 527
e 526 537
e 526 549
e 526 566
e 527 566
e 528 533
e 528 536
e 529 530
e 529 533
e 530 535
e 531 534
e 531 536
e 531 550
e 531 553
e 532 553
e 532 554
e 532 692
e 534 550
e 534 552
e 535 551
e 535 568
e 536 553
e 537 548
e 537 549
e 537 551
e 537 552
e 537 698
e 538 539
e 538 540
e 538 541
e 539 540
e 539 791
e 540 541
e 540 791
e 540 792
e 542 543
e 544 545
e 546 547
e 546 643
e 547 643
e 548 552
e 549 698
e 550 552
e 550 568
e 551 568
e 552 568
e 553 554
e 555 579
e 555 582
e 555 777
e 556 557
e 556 560
e 556 561
e 556 562
e 556 630
e 556 631
e 556 632
e 556 682
e 557 559
e 557 560
e 558 562
e 559 560
e 559 591
e 559 593
e 559 594
e 560 595
e 560 596
e 561 632
e 562 596
e 562 625
e 562 630
e 562 631
e 563 564
e 563 565
e 563 821
e 563 826
e 565 585
e 565 826
e 566 567
e 566 686
e 566 716
e 567 716
e 567 718
e 569 570
e 569 706
e 569 726
e 570 576
e 570 706
e 570 727
e 571 572
e 572 665
e 573 629
e 573 834
e 574 575
e 575 758
e 576 584
e 576 588
e 576 706
e 576 708
e 576 716
e 576 727
e 577 578
e 577 579
e 577 580
e 577 581
e 578 580
e 578 581
e 578 582
e 579 580
e 579 582
e 579 777
e 580 581
e 580 582
e 583 717
e 583 724
e 584 588
e 584 703
e 584 706
e 584 763
e 585 826
e 586 589
e 586 715
e 586 719
e 586 721
e 586 722
e 587 590
e 588 690
e 588 708
e 588 723
e 589 597
e 589 717
e 589 721
e 589 729
e 591 592
e 591 593
e 592 593
e 592 594
e 592 625
e 593 594
e 594 595
e 595 596
e 595 625
e 596 625
e 597 717
e 597 729
e 598 599
e 598 832
e 599 600
e 600 808
e 600 812
e 600 831
e 600 832
e 601 602
e 603 618
e 603 824
e 603 860
e 604 856
e 604 863
e 605 607
e 605 608
e 605 610
e 605 871
e 606 618
e 606 871
e 607 608
e 607 609
e 607 610
e 607 612
e 608 610
e 609 612
e 609 613
e 609 614
e 609 622
e 609 875
e 610 612
e 610 617
e 610 621
e 611 855
e 612 621
e 612 622
e 613 614
e 613 615
e 613 616
e 613 653
e 613 867
e 613 875
e 614 622
e 614 653
e 615 616
e 615 867
e 616 617
e 616 620
e 616 653
e 617 621
e 618 860
e 619 864
e 619 869
e 620 870
e 621 653
e 622 653
e 623 624
e 623 852
e 624 852
e 627 628
e 628 848
e 630 631
e 633 638
e 633 640
e 633 641
e 634 635
e 635 637
e 635 638
e 635 639
e 637 639
e 637 768
e 638 639
e 638 640
e 638 641
e 642 643
e 644 649
e 644 650
e 645 647
e 645 649
e 645 650
e 646 647
e 646 648
e 646 651
e 647 648
e 647 650
e 649 857
e 654 655
e 654 871
e 654 874
e 656 657
e 656 658
e 656 659
e 656 668
e 656 669
e 657 658
e 657 660
e 657 664
e 657 668
e 658 659
e 658 660
e 659 661
e 659 665
e 661 662
e 661 669
e 661 671
e 662 667
e 662 671
e 663 664
e 663 666
e 663 667
e 663 671
e 664 668
e 664 669
e 664 670
e 664 671
e 666 667
e 667 671
e 668 669
e 668 670
e 669 670
e 669 671
e 672 676
e 673 674
e 673 677
e 674 677
e 675 679
e 675 779
e 678 679
e 679 779
e 680 835
e 681 682
e 682 709
e 682 711
e 684 687
e 684 702
e 684 705
e 684 721
e 684 733
e 685 686
e 685 707
e 685 716
e 685 720
e 685 774
e 686 716
e 686 774
e 687 702
e 687 704
e 687 711
e 687 714
e 687 720
e 687 733
e 688 717
e 688 718
e 688 729
e 689 692
e 689 728
e 690 691
e 690 716
e 690 723
e 691 707
e 691 716
e 691 723
e 692 728
e 692 730
e 692 732
e 694 695
e 695 697
e 695 828
e 695 851
e 695 852
e 696 697
e 696 752
e 696 755
e 697 752
e 698 772
e 698 828
e 698 851
e 701 703
e 701 714
e 701 725
e 701 760
e 701 762
e 702 705
e 702 714
e 702 760
e 702 761
e 703 706
e 703 762
e 703 763
e 704 711
e 704 720
e 704 747
e 704 773
e 705 724
e 705 725
e 706 726
e 706 762
e 707 714
e 707 716
e 707 720
e 708 716
e 709 710
e 709 711
e 709 712
e 709 713
e 709 734
e 710 711
e 710 712
e 710 713
e 711 733
e 712 713
e 714 720
e 714 760
e 714 761
e 715 722
e 715 728
e 715 730
e 716 718
e 716 727
e 717 721
e 717 724
e 718 727
e 718 731
e 719 731
e 720 773
e 720 774
e 721 722
e 723 763
e 724 725
e 725 726
e 725 762
e 726 762
e 728 730
e 730 732
e 731 732
e 733 736
e 733 739
e 735 739
e 736 739
e 741 743
e 741 745
e 741 749
e 742 743
e 742 746
e 743 745
e 743 746
e 743 748
e 744 747
e 744 749
e 745 746
e 747 748
e 747 749
e 747 773
e 748 749
e 750 752
e 750 753
e 750 754
e 750 755
e 751 754
e 751 755
e 752 755
e 752 787
e 753 754
e 754 755
e 754 780
e 754 784
e 756 847
e 757 802
e 758 759
e 765 766
e 767 768
e 767 790
e 767 792
e 767 793
e 769 770
e 769 771
e 770 771
e 772 851
e 772 853
e 772 854
e 773 774
e 776 777
e 776 778
e 776 779
e 777 778
e 778 779
e 780 781
e 780 783
e 780 784
e 781 782
e 781 783
e 781 784
e 782 783
e 782 784
e 783 784
e 784 787
e 786 787
e 788 789
e 790 791
e 791 792
e 792 793
e 795 806
e 795 812
e 795 813
e 796 807
e 796 811
e 796 817
e 797 806
e 797 813
e 798 833
e 798 836
e 800 801
e 801 836
e 803 805
e 803 807
e 803 809
e 804 807
e 804 813
e 804 814
e 804 817
e 805 807
e 805 819
e 805 820
e 806 813
e 807 810
e 807 811
e 807 816
e 807 817
e 808 812
e 808 813
e 808 814
e 808 831
e 809 811
e 810 816
e 810 825
e 812 813
e 814 822
e 814 831
e 815 824
e 815 825
e 816 819
e 818 822
e 818 823
e 818 862
e 818 874
e 819 820
e 821 826
e 822 862
e 823 824
e 823 825
e 823 860
e 824 825
e 824 860
e 828 829
e 828 830
e 831 832
e 833 836
e 837 838
e 837 839
e 837 854
e 838 840
e 838 844
e 838 849
e 838 850
e 838 854
e 839 853
e 839 854
e 840 844
e 840 849
e 841 842
e 842 843
e 843 845
e 843 848
e 844 845
e 846 847
e 846 848
e 847 848
e 849 850
e 850 851
e 850 852
e 850 854
e 851 852
e 851 854
e 853 854
e 856 863
e 856 870
e 857 859
e 858 861
e 859 863
e 859 868
e 859 876
e 860 874
e 862 874
e 863 866
e 863 876
e 864 869
e 864 877
e 865 866
e 865 872
e 865 873
e 868 869
e 868 876
e 868 877
e 869 877
e 876 877
c k 4
